15 2 
5105	5105	
742	122	131	
203	305	319	
666	778	825	
591	762	833	
225	744	744	
166	124	128	
179	240	240	
894	212	229	
394	297	301	
784	417	428	
440	364	390	
261	122	132	
977	924	941	
954	670	678	
86	726	760	
